% seed = 3425550

mint = 68;
% maxt = 224;

nActs = 42;
dur = [0,6,3,2,1,10,6,10,10,5,4,6,9,10,4,1,9,8,9,2,7,4,8,5,5,9,2,5,4,3,8,7,8,5,1,10,4,4,2,1,7,0];

nSkills = 4;
sreq = [| 0,0,0,0,
	| 4,2,2,2,
	| 0,7,0,2,
	| 3,2,6,2,
	| 3,2,2,6,
	| 2,5,1,3,
	| 1,5,1,2,
	| 5,1,3,0,
	| 5,4,0,0,
	| 3,2,7,4,
	| 4,5,4,2,
	| 5,0,0,7,
	| 0,5,3,4,
	| 7,6,0,0,
	| 3,4,4,0,
	| 2,2,6,4,
	| 4,5,6,0,
	| 2,0,5,2,
	| 4,3,4,3,
	| 5,0,0,4,
	| 0,6,0,3,
	| 0,4,0,5,
	| 6,7,0,0,
	| 0,2,7,4,
	| 3,4,6,3,
	| 3,2,6,2,
	| 1,1,2,5,
	| 4,1,4,5,
	| 0,2,5,2,
	| 7,0,5,4,
	| 2,2,3,3,
	| 0,6,5,0,
	| 1,3,4,4,
	| 4,4,4,4,
	| 2,1,2,7,
	| 0,0,7,4,
	| 4,1,4,3,
	| 0,6,0,7,
	| 4,4,5,2,
	| 0,0,6,5,
	| 4,5,4,0,
	| 0,0,0,0, |];

nResources = 30;
mastery = [| true,true,true,false,
	| true,true,false,true,
	| true,true,false,false,
	| false,true,false,true,
	| false,false,true,true,
	| false,true,true,false,
	| true,false,true,true,
	| true,true,true,false,
	| false,true,true,false,
	| true,false,false,false,
	| false,true,false,false,
	| true,false,false,false,
	| false,false,false,true,
	| true,true,true,false,
	| false,true,false,false,
	| false,false,false,true,
	| false,false,true,false,
	| true,true,false,true,
	| true,false,false,true,
	| false,true,true,false,
	| false,false,true,true,
	| true,true,true,false,
	| false,true,false,true,
	| false,false,false,true,
	| true,true,false,true,
	| false,true,false,true,
	| false,true,false,true,
	| false,true,false,true,
	| false,false,true,false,
	| true,false,true,true, |];

nPrecs = 85;
pred = [1,1,1,2,2,2,3,3,3,4,4,4,5,5,5,6,6,6,7,7,7,8,8,8,9,9,10,10,10,11,11,12,12,13,13,13,14,14,14,15,15,15,16,17,17,18,18,18,19,19,20,20,21,22,22,22,23,24,25,25,25,26,26,26,27,27,28,28,29,29,29,30,30,31,32,33,34,35,36,37,38,38,39,40,41];
succ = [2,3,4,9,11,7,10,5,8,9,11,6,13,22,23,34,29,23,12,14,22,17,15,24,12,14,34,21,38,33,22,17,29,31,38,39,18,19,24,26,28,16,37,34,21,33,29,23,26,20,25,27,40,25,37,24,26,30,36,30,31,35,36,32,28,32,33,31,41,35,30,40,32,41,39,35,36,37,39,38,41,40,42,42,42];

nUnrels = 381;
unpred = [2,2,2,2,2,2,2,2,2,3,3,3,3,3,3,3,3,3,3,3,3,4,4,4,4,4,4,4,5,5,5,5,5,5,5,5,5,5,5,5,5,5,5,5,5,5,5,5,6,6,6,6,6,6,6,6,6,6,6,6,6,6,6,6,6,6,6,6,6,6,7,7,7,7,7,7,7,8,8,8,8,8,8,8,8,8,8,8,8,8,8,9,9,9,9,9,9,10,10,10,10,10,10,10,10,10,10,10,10,10,10,10,10,10,10,10,10,10,10,10,10,11,11,11,11,11,11,11,11,11,11,11,11,11,11,11,11,12,12,12,12,12,12,12,12,12,12,12,12,12,12,12,12,13,13,13,13,13,13,13,13,13,13,13,13,13,13,13,13,13,13,13,13,13,13,13,14,14,14,14,14,14,15,15,15,15,15,15,15,15,15,15,15,15,15,16,16,16,16,16,16,16,16,16,16,16,16,16,16,16,16,16,16,16,16,16,17,17,17,17,17,17,17,17,17,17,17,17,17,17,17,17,17,17,17,18,18,18,18,18,18,18,18,18,18,19,19,19,19,19,19,20,20,20,20,20,20,20,21,21,21,21,21,21,21,21,21,21,21,21,21,21,21,21,21,21,21,22,22,22,22,22,22,22,22,23,23,23,23,23,23,23,23,23,24,24,24,24,24,24,24,24,24,24,24,24,24,25,25,25,25,25,25,25,25,25,26,26,26,26,26,26,26,27,27,27,27,28,28,28,28,28,28,29,29,29,29,30,30,30,30,30,30,30,30,31,31,31,31,31,31,31,31,31,32,32,32,32,32,32,32,32,33,33,33,34,34,34,34,34,35,35,36,36,36,36,37,38,39,39,40];
unsucc = [3,4,5,6,8,10,13,15,16,4,6,7,9,11,12,14,18,19,20,27,29,5,7,8,10,13,15,16,6,7,8,9,10,11,12,14,15,16,17,18,19,20,21,27,28,29,33,34,7,8,9,10,11,12,13,14,15,16,17,18,19,20,21,22,24,25,27,28,31,33,8,9,10,11,13,15,16,9,10,11,12,13,14,18,19,20,22,23,25,27,29,10,11,13,15,16,22,11,12,13,14,15,16,17,18,19,20,22,23,24,25,26,27,28,29,30,31,32,33,35,37,12,13,14,15,16,17,18,19,20,21,23,26,27,28,29,34,13,14,15,16,18,19,20,22,23,24,25,26,27,28,31,33,14,15,16,17,18,19,20,21,22,23,24,25,26,27,28,29,30,32,33,34,35,36,37,15,16,17,21,22,34,17,18,19,20,21,22,23,24,25,27,29,30,34,17,18,19,20,21,22,23,24,25,26,27,28,29,30,31,32,33,34,35,36,39,18,19,20,22,23,24,25,26,27,28,29,30,31,32,33,35,37,38,41,19,20,21,22,24,25,27,28,31,34,21,22,23,24,29,34,21,22,23,24,26,29,34,22,23,24,25,26,27,28,29,30,31,32,33,34,35,36,37,38,39,41,23,26,27,28,29,33,34,35,24,25,27,28,29,30,31,33,34,25,26,27,28,29,31,33,34,35,36,37,38,41,26,27,28,29,33,34,35,37,38,27,28,29,30,31,33,34,29,30,34,36,29,30,32,34,36,39,31,33,34,36,31,33,34,35,36,37,38,41,32,33,34,35,36,37,38,39,40,33,34,35,36,37,38,40,41,34,36,39,35,37,38,40,41,36,39,37,38,40,41,39,39,40,41,41];

USEFUL_RES = [{},
	{1,2,3,4,5,6,7,8,9,10,11,12,13,14,15,16,17,18,19,20,21,22,23,24,25,26,27,28,29,30},
	{1,2,3,4,5,6,7,8,9,11,13,14,15,16,18,19,20,21,22,23,24,25,26,27,28,30},
	{1,2,3,4,5,6,7,8,9,10,11,12,13,14,15,16,17,18,19,20,21,22,23,24,25,26,27,28,29,30},
	{1,2,3,4,5,6,7,8,9,10,11,12,13,14,15,16,17,18,19,20,21,22,23,24,25,26,27,28,29,30},
	{1,2,3,4,5,6,7,8,9,10,11,12,13,14,15,16,17,18,19,20,21,22,23,24,25,26,27,28,29,30},
	{1,2,3,4,5,6,7,8,9,10,11,12,13,14,15,16,17,18,19,20,21,22,23,24,25,26,27,28,29,30},
	{1,2,3,4,5,6,7,8,9,10,11,12,14,15,17,18,19,20,21,22,23,25,26,27,28,29,30},
	{1,2,3,4,6,7,8,9,10,11,12,14,15,18,19,20,22,23,25,26,27,28,30},
	{1,2,3,4,5,6,7,8,9,10,11,12,13,14,15,16,17,18,19,20,21,22,23,24,25,26,27,28,29,30},
	{1,2,3,4,5,6,7,8,9,10,11,12,13,14,15,16,17,18,19,20,21,22,23,24,25,26,27,28,29,30},
	{1,2,3,4,5,7,8,10,12,13,14,16,18,19,21,22,23,24,25,26,27,28,30},
	{1,2,3,4,5,6,7,8,9,11,13,14,15,16,17,18,19,20,21,22,23,24,25,26,27,28,29,30},
	{1,2,3,4,6,7,8,9,10,11,12,14,15,18,19,20,22,23,25,26,27,28,30},
	{1,2,3,4,5,6,7,8,9,10,11,12,14,15,17,18,19,20,21,22,23,25,26,27,28,29,30},
	{1,2,3,4,5,6,7,8,9,10,11,12,13,14,15,16,17,18,19,20,21,22,23,24,25,26,27,28,29,30},
	{1,2,3,4,5,6,7,8,9,10,11,12,14,15,17,18,19,20,21,22,23,25,26,27,28,29,30},
	{1,2,3,4,5,6,7,8,9,10,12,13,14,16,17,18,19,20,21,22,23,24,25,26,27,28,29,30},
	{1,2,3,4,5,6,7,8,9,10,11,12,13,14,15,16,17,18,19,20,21,22,23,24,25,26,27,28,29,30},
	{1,2,3,4,5,7,8,10,12,13,14,16,18,19,21,22,23,24,25,26,27,28,30},
	{1,2,3,4,5,6,7,8,9,11,13,14,15,16,18,19,20,21,22,23,24,25,26,27,28,30},
	{1,2,3,4,5,6,7,8,9,11,13,14,15,16,18,19,20,21,22,23,24,25,26,27,28,30},
	{1,2,3,4,6,7,8,9,10,11,12,14,15,18,19,20,22,23,25,26,27,28,30},
	{1,2,3,4,5,6,7,8,9,11,13,14,15,16,17,18,19,20,21,22,23,24,25,26,27,28,29,30},
	{1,2,3,4,5,6,7,8,9,10,11,12,13,14,15,16,17,18,19,20,21,22,23,24,25,26,27,28,29,30},
	{1,2,3,4,5,6,7,8,9,10,11,12,13,14,15,16,17,18,19,20,21,22,23,24,25,26,27,28,29,30},
	{1,2,3,4,5,6,7,8,9,10,11,12,13,14,15,16,17,18,19,20,21,22,23,24,25,26,27,28,29,30},
	{1,2,3,4,5,6,7,8,9,10,11,12,13,14,15,16,17,18,19,20,21,22,23,24,25,26,27,28,29,30},
	{1,2,3,4,5,6,7,8,9,11,13,14,15,16,17,18,19,20,21,22,23,24,25,26,27,28,29,30},
	{1,2,3,4,5,6,7,8,9,10,12,13,14,16,17,18,19,20,21,22,23,24,25,26,27,28,29,30},
	{1,2,3,4,5,6,7,8,9,10,11,12,13,14,15,16,17,18,19,20,21,22,23,24,25,26,27,28,29,30},
	{1,2,3,4,5,6,7,8,9,11,14,15,17,18,20,21,22,23,25,26,27,28,29,30},
	{1,2,3,4,5,6,7,8,9,10,11,12,13,14,15,16,17,18,19,20,21,22,23,24,25,26,27,28,29,30},
	{1,2,3,4,5,6,7,8,9,10,11,12,13,14,15,16,17,18,19,20,21,22,23,24,25,26,27,28,29,30},
	{1,2,3,4,5,6,7,8,9,10,11,12,13,14,15,16,17,18,19,20,21,22,23,24,25,26,27,28,29,30},
	{1,2,4,5,6,7,8,9,13,14,16,17,18,19,20,21,22,23,24,25,26,27,28,29,30},
	{1,2,3,4,5,6,7,8,9,10,11,12,13,14,15,16,17,18,19,20,21,22,23,24,25,26,27,28,29,30},
	{1,2,3,4,5,6,7,8,9,11,13,14,15,16,18,19,20,21,22,23,24,25,26,27,28,30},
	{1,2,3,4,5,6,7,8,9,10,11,12,13,14,15,16,17,18,19,20,21,22,23,24,25,26,27,28,29,30},
	{1,2,4,5,6,7,8,9,13,14,16,17,18,19,20,21,22,23,24,25,26,27,28,29,30},
	{1,2,3,4,5,6,7,8,9,10,11,12,14,15,17,18,19,20,21,22,23,25,26,27,28,29,30},
	{}];

POTENTIAL_ACT = [{2,3,4,5,6,7,8,9,10,11,12,13,14,15,16,17,18,19,20,21,22,23,24,25,26,27,28,29,30,31,32,33,34,35,36,37,38,39,40,41},
	{2,3,4,5,6,7,8,9,10,11,12,13,14,15,16,17,18,19,20,21,22,23,24,25,26,27,28,29,30,31,32,33,34,35,36,37,38,39,40,41},
	{2,3,4,5,6,7,8,9,10,11,12,13,14,15,16,17,18,19,20,21,22,23,24,25,26,27,28,29,30,31,32,33,34,35,37,38,39,41},
	{2,3,4,5,6,7,8,9,10,11,12,13,14,15,16,17,18,19,20,21,22,23,24,25,26,27,28,29,30,31,32,33,34,35,36,37,38,39,40,41},
	{2,3,4,5,6,7,8,10,11,12,13,15,16,17,18,19,20,21,22,24,25,26,27,28,29,30,31,32,33,34,35,36,37,38,39,40,41},
	{2,3,4,5,6,7,8,9,10,11,13,14,15,16,17,18,19,21,22,23,24,25,26,27,28,29,30,31,32,33,34,35,36,37,38,39,40,41},
	{2,3,4,5,6,7,8,9,10,11,12,13,14,15,16,17,18,19,20,21,22,23,24,25,26,27,28,29,30,31,32,33,34,35,36,37,38,39,40,41},
	{2,3,4,5,6,7,8,9,10,11,12,13,14,15,16,17,18,19,20,21,22,23,24,25,26,27,28,29,30,31,32,33,34,35,36,37,38,39,40,41},
	{2,3,4,5,6,7,8,9,10,11,13,14,15,16,17,18,19,21,22,23,24,25,26,27,28,29,30,31,32,33,34,35,36,37,38,39,40,41},
	{2,4,5,6,7,8,9,10,11,12,14,15,16,17,18,19,20,23,25,26,27,28,30,31,33,34,35,37,39,41},
	{2,3,4,5,6,7,8,9,10,11,13,14,15,16,17,19,21,22,23,24,25,26,27,28,29,31,32,33,34,35,37,38,39,41},
	{2,4,5,6,7,8,9,10,11,12,14,15,16,17,18,19,20,23,25,26,27,28,30,31,33,34,35,37,39,41},
	{2,3,4,5,6,7,10,11,12,13,16,18,19,20,21,22,24,25,26,27,28,29,30,31,33,34,35,36,37,38,39,40},
	{2,3,4,5,6,7,8,9,10,11,12,13,14,15,16,17,18,19,20,21,22,23,24,25,26,27,28,29,30,31,32,33,34,35,36,37,38,39,40,41},
	{2,3,4,5,6,7,8,9,10,11,13,14,15,16,17,19,21,22,23,24,25,26,27,28,29,31,32,33,34,35,37,38,39,41},
	{2,3,4,5,6,7,10,11,12,13,16,18,19,20,21,22,24,25,26,27,28,29,30,31,33,34,35,36,37,38,39,40},
	{2,4,5,6,7,8,10,11,13,15,16,17,18,19,24,25,26,27,28,29,30,31,32,33,34,35,36,37,39,40,41},
	{2,3,4,5,6,7,8,9,10,11,12,13,14,15,16,17,18,19,20,21,22,23,24,25,26,27,28,29,30,31,32,33,34,35,36,37,38,39,40,41},
	{2,3,4,5,6,7,8,9,10,11,12,13,14,15,16,17,18,19,20,21,22,23,24,25,26,27,28,29,30,31,33,34,35,36,37,38,39,40,41},
	{2,3,4,5,6,7,8,9,10,11,13,14,15,16,17,18,19,21,22,23,24,25,26,27,28,29,30,31,32,33,34,35,36,37,38,39,40,41},
	{2,3,4,5,6,7,8,10,11,12,13,15,16,17,18,19,20,21,22,24,25,26,27,28,29,30,31,32,33,34,35,36,37,38,39,40,41},
	{2,3,4,5,6,7,8,9,10,11,12,13,14,15,16,17,18,19,20,21,22,23,24,25,26,27,28,29,30,31,32,33,34,35,36,37,38,39,40,41},
	{2,3,4,5,6,7,8,9,10,11,12,13,14,15,16,17,18,19,20,21,22,23,24,25,26,27,28,29,30,31,32,33,34,35,36,37,38,39,40,41},
	{2,3,4,5,6,7,10,11,12,13,16,18,19,20,21,22,24,25,26,27,28,29,30,31,33,34,35,36,37,38,39,40},
	{2,3,4,5,6,7,8,9,10,11,12,13,14,15,16,17,18,19,20,21,22,23,24,25,26,27,28,29,30,31,32,33,34,35,36,37,38,39,40,41},
	{2,3,4,5,6,7,8,9,10,11,12,13,14,15,16,17,18,19,20,21,22,23,24,25,26,27,28,29,30,31,32,33,34,35,36,37,38,39,40,41},
	{2,3,4,5,6,7,8,9,10,11,12,13,14,15,16,17,18,19,20,21,22,23,24,25,26,27,28,29,30,31,32,33,34,35,36,37,38,39,40,41},
	{2,3,4,5,6,7,8,9,10,11,12,13,14,15,16,17,18,19,20,21,22,23,24,25,26,27,28,29,30,31,32,33,34,35,36,37,38,39,40,41},
	{2,4,5,6,7,8,10,11,13,15,16,17,18,19,24,25,26,27,28,29,30,31,32,33,34,35,36,37,39,40,41},
	{2,3,4,5,6,7,8,9,10,11,12,13,14,15,16,17,18,19,20,21,22,23,24,25,26,27,28,29,30,31,32,33,34,35,36,37,38,39,40,41}];
